
  32    4
  10   10   10   10

   0   0   0   0   0  19 2 4 8 9 17 18 19 20 21 22 23 24 25 26 27 28 29 30 31 
   1   1   0   1   1   2 16 3 
   7   5   0   3   5   1 5 
   8   8   0   3   3   4 15 14 11 10 
   2   5   1   3   0   2 11 6 
   4   3   6   4   0   1 7 
   1   4   0   6   5   1 10 
   3   6   3   6   0   1 13 
   9   6   3   0   6   1 12 
   3   0  10   6   3   1 32
   6   1   3   3   0   1 32
  10   0   3   2   3   1 32
   9   5   4   2   0   1 32
  10   7   0   5   2   1 32
   2   2   0   6   6   1 32
   6   2   8   0   6   1 32
   5   0   3   2   8   1 32
   7   3   5   7   0   1 32
   4   2   5   4   0   1 32
   5   7   3   0   5   1 32
   7   3   4   3   0   1 32
   7   0   4   2   4   1 32
  10   6   0   5   3   1 32
   3   0   3   3   3   1 32
  10   0   3   7   2   1 32
   6   5   0   6   4   1 32
   9   0   6   4   4   1 32
   5   4   3   4   0   1 32
   4   1   3   0   1   1 32
   7   3   1   0   5   1 32
  10   3   0   3   5   1 32
   0   0   0   0   0   0 
